10  10
  0  43  1  13  2  45  3  35  4  41  5  54  6  20  7  14  8  36  9  35
  0  61  1  10  2  42  3  62  4  96  5  88  6  87  7  85  8  54  9  66
  0  38  1  11  2  27  3  26  4  7  5  71  6  28  7  17  8  7  9  28
  0  73  1  85  2  37  3  93  4  17  5  87  6  91  7  14  8  31  9  71
  0  33  1  45  2  85  3  51  4  77  5  2  6  97  7  88  8  75  9  76
  0  22  1  66  2  91  3  61  4  32  5  16  6  11  7  2  8  3  9  28
  0  34  1  73  2  84  3  77  4  28  5  73  6  46  7  16  8  48  9  48
  0  15  1  28  2  60  3  8  4  44  5  56  6  11  7  4  8  89  9  34
  0  27  1  64  2  73  3  85  4  61  5  8  6  61  7  75  8  94  9  90
  0  92  1  26  2  61  3  62  4  28  5  36  6  81  7  13  8  14  9  57
